# Solution for model Asynchoronous-Version
# Objective value = 1.4982698936355357e+02
u_eg_o[101,1,1] 0
u_eg_o[101,1,2] 0
u_eg_o[101,1,3] 0
u_eg_o[101,1,4] 0
u_eg_o[102,1,1] 0
u_eg_o[102,1,2] 1
u_eg_o[102,1,3] 0
u_eg_o[102,1,4] 0
u_eg_o[203,1,1] 0
u_eg_o[203,1,2] 0
u_eg_o[203,1,3] 0
u_eg_o[203,1,4] 0
u_eg_o[303,1,1] 0
u_eg_o[303,1,2] 0
u_eg_o[303,1,3] 0
u_eg_o[303,1,4] 0
u_eg_o[101,2,1] 1
u_eg_o[101,2,2] 0
u_eg_o[101,2,3] 0
u_eg_o[101,2,4] 0
u_eg_o[102,2,1] 0
u_eg_o[102,2,2] 0
u_eg_o[102,2,3] 0
u_eg_o[102,2,4] 0
u_eg_o[203,2,1] 0
u_eg_o[203,2,2] 0
u_eg_o[203,2,3] 0
u_eg_o[203,2,4] 0
u_eg_o[303,2,1] 0
u_eg_o[303,2,2] 0
u_eg_o[303,2,3] 0
u_eg_o[303,2,4] 0
dL_eg_o[101,1,1] 1.1960000000000001e+02
dL_eg_o[101,1,2] 1.1960000000000001e+02
dL_eg_o[101,1,3] 1.1960000000000001e+02
dL_eg_o[101,1,4] 1.1960000000000001e+02
dL_eg_o[102,1,1] 1.1960000000000001e+02
dL_eg_o[102,1,2] 1.9981736474883409e+01
dL_eg_o[102,1,3] 1.1960000000000001e+02
dL_eg_o[102,1,4] 1.1960000000000001e+02
dL_eg_o[203,1,1] 1.1960000000000001e+02
dL_eg_o[203,1,2] 1.1960000000000001e+02
dL_eg_o[203,1,3] 1.1960000000000001e+02
dL_eg_o[203,1,4] 1.1960000000000001e+02
dL_eg_o[303,1,1] 1.1960000000000001e+02
dL_eg_o[303,1,2] 1.1960000000000001e+02
dL_eg_o[303,1,3] 1.1960000000000001e+02
dL_eg_o[303,1,4] 1.1960000000000001e+02
dL_eg_o[101,2,1] 1.2257838467384840e+01
dL_eg_o[101,2,2] 1.1960000000000001e+02
dL_eg_o[101,2,3] 1.1960000000000001e+02
dL_eg_o[101,2,4] 1.1960000000000001e+02
dL_eg_o[102,2,1] 1.1960000000000001e+02
dL_eg_o[102,2,2] 1.1960000000000001e+02
dL_eg_o[102,2,3] 1.1960000000000001e+02
dL_eg_o[102,2,4] 1.1960000000000001e+02
dL_eg_o[203,2,1] 1.1960000000000001e+02
dL_eg_o[203,2,2] 1.1960000000000001e+02
dL_eg_o[203,2,3] 1.1960000000000001e+02
dL_eg_o[203,2,4] 1.1960000000000001e+02
dL_eg_o[303,2,1] 6.9001982508079482e+00
dL_eg_o[303,2,2] 1.1960000000000001e+02
dL_eg_o[303,2,3] 1.1960000000000001e+02
dL_eg_o[303,2,4] 1.1960000000000001e+02
difL_eg_o[101,1,1,0] 6.3559426906228360e+01
difL_eg_o[101,1,1,1] 4.1889149881811292e+01
difL_eg_o[101,1,2,0] 4.4880047098061517e+01
difL_eg_o[101,1,2,1] 4.1939532664924570e+01
difL_eg_o[101,1,3,0] 4.6559099693151126e+01
difL_eg_o[101,1,3,1] 4.1615418375348192e+01
difL_eg_o[101,1,4,0] 4.6560631674544709e+01
difL_eg_o[101,1,4,1] 4.1616771958366670e+01
difL_eg_o[102,1,1,0] 5.9769140186901978e+01
difL_eg_o[102,1,1,1] 4.2676340085652392e+01
difL_eg_o[102,1,2,0] 1.9078138573706141e+01
difL_eg_o[102,1,2,1] 5.9409107983668452e+00
difL_eg_o[102,1,3,0] 5.0647002801362788e+00
difL_eg_o[102,1,3,1] 1.1949271446859173e+02
difL_eg_o[102,1,4,0] 4.4340098582874269e+01
difL_eg_o[102,1,4,1] 4.2630825320381547e+01
difL_eg_o[203,1,1,0] 5.5944016532684543e+01
difL_eg_o[203,1,1,1] 2.7934382217369972e+01
difL_eg_o[203,1,2,0] 4.4369982494744875e+01
difL_eg_o[203,1,2,1] 4.3743040408059763e+01
difL_eg_o[203,1,3,0] 4.6027090120678750e+01
difL_eg_o[203,1,3,1] 4.3146358318604079e+01
difL_eg_o[203,1,4,0] 4.6027950156674045e+01
difL_eg_o[203,1,4,1] 4.3157001418013948e+01
difL_eg_o[303,1,1,0] 6.0212691134775191e+01
difL_eg_o[303,1,1,1] 4.6037809647558667e+01
difL_eg_o[303,1,2,0] 4.3193129346074244e+01
difL_eg_o[303,1,2,1] 4.3609826802010780e+01
difL_eg_o[303,1,3,0] 4.4687270649584676e+01
difL_eg_o[303,1,3,1] 4.3059645934919949e+01
difL_eg_o[303,1,4,0] 4.4790754900813276e+01
difL_eg_o[303,1,4,1] 4.2755310975968726e+01
difL_eg_o[101,2,1,0] 4.9545105325526180e+00
difL_eg_o[101,2,1,1] 1.1211932450533439e+01
difL_eg_o[101,2,2,0] 2.5758764683242774e+01
difL_eg_o[101,2,2,1] 2.0771837708097578e+01
difL_eg_o[101,2,3,0] 4.4758702756862064e+01
difL_eg_o[101,2,3,1] 4.4513747339959416e+01
difL_eg_o[101,2,4,0] 4.4758687159599184e+01
difL_eg_o[101,2,4,1] 4.4497673921536595e+01
difL_eg_o[102,2,1,0] 4.4912618817461691e-01
difL_eg_o[102,2,1,1] 1.1830141992174603e+01
difL_eg_o[102,2,2,0] 4.7651409065915644e+01
difL_eg_o[102,2,2,1] 4.3952635765304294e+01
difL_eg_o[102,2,3,0] 46.2920374463179
difL_eg_o[102,2,3,1] 4.4551973377410633e+01
difL_eg_o[102,2,4,0] 4.6291371441640678e+01
difL_eg_o[102,2,4,1] 4.4534961051248132e+01
difL_eg_o[203,2,1,0] 7.5543982022527274e+00
difL_eg_o[203,2,1,1] 5.8965749513096455e+00
difL_eg_o[203,2,2,0] 4.5122719950826863e+01
difL_eg_o[203,2,2,1] 4.2941736438566338e+01
difL_eg_o[203,2,3,0] 4.4206655349440474e+01
difL_eg_o[203,2,3,1] 4.3378628344296040e+01
difL_eg_o[203,2,4,0] 4.4206538924505551e+01
difL_eg_o[203,2,4,1] 4.3367792080248648e+01
difL_eg_o[303,2,1,0] 2.2063408809629408e+00
difL_eg_o[303,2,1,1] 6.5379504294117083e+00
difL_eg_o[303,2,2,0] 4.8365729581612740e+01
difL_eg_o[303,2,2,1] 4.2783427343263206e+01
difL_eg_o[303,2,3,0] 4.6933054390328913e+01
difL_eg_o[303,2,3,1] 43.2788389409347
difL_eg_o[303,2,4,0] 4.7580966895341220e+01
difL_eg_o[303,2,4,1] 4.2251226301878404e+01
pL_eg_o[101,1,1] 0
pL_eg_o[101,1,2] 0
pL_eg_o[101,1,3] 0
pL_eg_o[101,1,4] 0
pL_eg_o[102,1,1] 0
pL_eg_o[102,1,2] 1.9981736570138477e+01
pL_eg_o[102,1,3] 0
pL_eg_o[102,1,4] 0
pL_eg_o[203,1,1] 0
pL_eg_o[203,1,2] 0
pL_eg_o[203,1,3] 0
pL_eg_o[203,1,4] 0
pL_eg_o[303,1,1] 0
pL_eg_o[303,1,2] 0
pL_eg_o[303,1,3] 0
pL_eg_o[303,1,4] 0
pL_eg_o[101,2,1] 1.2257838467384842e+01
pL_eg_o[101,2,2] 0
pL_eg_o[101,2,3] 0
pL_eg_o[101,2,4] 0
pL_eg_o[102,2,1] 0
pL_eg_o[102,2,2] 0
pL_eg_o[102,2,3] 0
pL_eg_o[102,2,4] 0
pL_eg_o[203,2,1] 0
pL_eg_o[203,2,2] 0
pL_eg_o[203,2,3] 0
pL_eg_o[203,2,4] 0
pL_eg_o[303,2,1] 0
pL_eg_o[303,2,2] 0
pL_eg_o[303,2,3] 0
pL_eg_o[303,2,4] 0
v_eg_o[101,1,1] 0
v_eg_o[101,1,2] 0
v_eg_o[101,1,3] 0
v_eg_o[101,1,4] 1
v_eg_o[102,1,1] 0
v_eg_o[102,1,2] 0
v_eg_o[102,1,3] 0
v_eg_o[102,1,4] 0
v_eg_o[203,1,1] 0
v_eg_o[203,1,2] 0
v_eg_o[203,1,3] 0
v_eg_o[203,1,4] 0
v_eg_o[303,1,1] 0
v_eg_o[303,1,2] 0
v_eg_o[303,1,3] 0
v_eg_o[303,1,4] 0
v_eg_o[101,2,1] 0
v_eg_o[101,2,2] 0
v_eg_o[101,2,3] 0
v_eg_o[101,2,4] 0
v_eg_o[102,2,1] 0
v_eg_o[102,2,2] 0
v_eg_o[102,2,3] 0
v_eg_o[102,2,4] 0
v_eg_o[203,2,1] 0
v_eg_o[203,2,2] 0
v_eg_o[203,2,3] 1
v_eg_o[203,2,4] 0
v_eg_o[303,2,1] 0
v_eg_o[303,2,2] 0
v_eg_o[303,2,3] 0
v_eg_o[303,2,4] 0
dR_eg_o[101,1,1] 1.1960000000000001e+02
dR_eg_o[101,1,2] 1.1960000000000001e+02
dR_eg_o[101,1,3] 1.1960000000000001e+02
dR_eg_o[101,1,4] 2.7032838223420259e+00
dR_eg_o[102,1,1] 1.1960000000000001e+02
dR_eg_o[102,1,2] 1.1960000000000001e+02
dR_eg_o[102,1,3] 1.1960000000000001e+02
dR_eg_o[102,1,4] 1.1960000000000001e+02
dR_eg_o[203,1,1] 1.1960000000000001e+02
dR_eg_o[203,1,2] 1.1960000000000001e+02
dR_eg_o[203,1,3] 1.1960000000000001e+02
dR_eg_o[203,1,4] 1.1960000000000001e+02
dR_eg_o[303,1,1] 1.1960000000000001e+02
dR_eg_o[303,1,2] 1.1960000000000001e+02
dR_eg_o[303,1,3] 1.1960000000000001e+02
dR_eg_o[303,1,4] 1.1960000000000001e+02
dR_eg_o[101,2,1] 1.1960000000000001e+02
dR_eg_o[101,2,2] 1.1960000000000001e+02
dR_eg_o[101,2,3] 1.1960000000000001e+02
dR_eg_o[101,2,4] 1.1960000000000001e+02
dR_eg_o[102,2,1] 1.1960000000000001e+02
dR_eg_o[102,2,2] 1.1960000000000001e+02
dR_eg_o[102,2,3] 1.1960000000000001e+02
dR_eg_o[102,2,4] 1.1960000000000001e+02
dR_eg_o[203,2,1] 1.1960000000000001e+02
dR_eg_o[203,2,2] 1.1960000000000001e+02
dR_eg_o[203,2,3] 2.0142705203372604e+01
dR_eg_o[203,2,4] 1.1960000000000001e+02
dR_eg_o[303,2,1] 1.1960000000000001e+02
dR_eg_o[303,2,2] 1.1960000000000001e+02
dR_eg_o[303,2,3] 1.1960000000000001e+02
dR_eg_o[303,2,4] 1.1960000000000001e+02
difR_eg_o[101,1,1,0] 4.4484307707928281e+01
difR_eg_o[101,1,1,1] 41.8218401740383
difR_eg_o[101,1,2,0] 4.4471133127666910e+01
difR_eg_o[101,1,2,1] 4.1821315461107559e+01
difR_eg_o[101,1,3,0] 2.8335769097849436e+01
difR_eg_o[101,1,3,1] 1.5181315432931498e+01
difR_eg_o[101,1,4,0] 6.9157694161673122e-01
difR_eg_o[101,1,4,1] 2.6133244550472652e+00
difR_eg_o[102,1,1,0] 4.4686245419151781e+01
difR_eg_o[102,1,1,1] 4.3069363982644575e+01
difR_eg_o[102,1,2,0] 4.4672338217074049e+01
difR_eg_o[102,1,2,1] 4.3061252252178647e+01
difR_eg_o[102,1,3,0] 29.525852245224
difR_eg_o[102,1,3,1] 2.6529184544835090e+01
difR_eg_o[102,1,4,0] 4.1592081586164248e+01
difR_eg_o[102,1,4,1] 4.1865598650323072e+01
difR_eg_o[203,1,1,0] 4.6558511953280330e+01
difR_eg_o[203,1,1,1] 41.6169843868433
difR_eg_o[203,1,2,0] 4.6538180675885677e+01
difR_eg_o[203,1,2,1] 4.1617379074662587e+01
difR_eg_o[203,1,3,0] 5.0950478784602616e+01
difR_eg_o[203,1,3,1] 4.3603786514549640e+01
difR_eg_o[203,1,4,0] 4.0679640443693913e+01
difR_eg_o[203,1,4,1] 4.1591162462396738e+01
difR_eg_o[303,1,1,0] 4.6025978468990552e+01
difR_eg_o[303,1,1,1] 4.3157219167547595e+01
difR_eg_o[303,1,2,0] 4.6007479713728017e+01
difR_eg_o[303,1,2,1] 4.3148421122851936e+01
difR_eg_o[303,1,3,0] 5.0095912872634514e+01
difR_eg_o[303,1,3,1] 4.7678352979777429e+01
difR_eg_o[303,1,4,0] 4.0844281109332456e+01
difR_eg_o[303,1,4,1] 4.2025423738195073e+01
difR_eg_o[101,2,1,0] 46.2935958929215
difR_eg_o[101,2,1,1] 4.4534714161248260e+01
difR_eg_o[101,2,2,0] 1.1314849650699315e+01
difR_eg_o[101,2,2,1] 1.1906357199992814e+02
difR_eg_o[101,2,3,0] 4.3128860727403449e+01
difR_eg_o[101,2,3,1] 4.1425596062368548e+01
difR_eg_o[101,2,4,0] 6.0638737318897782e+01
difR_eg_o[101,2,4,1] 4.4878049692951841e+01
difR_eg_o[102,2,1,0] 4.6934251637224428e+01
difR_eg_o[102,2,1,1] 4.3266798902934553e+01
difR_eg_o[102,2,2,0] 46.956527709958
difR_eg_o[102,2,2,1] 4.3276361630776670e+01
difR_eg_o[102,2,3,0] 4.3443813586411871e+01
difR_eg_o[102,2,3,1] 4.1382391280064262e+01
difR_eg_o[102,2,4,0] 5.2689331575480622e+01
difR_eg_o[102,2,4,1] 1.9425442283800891e+01
difR_eg_o[203,2,1,0] 4.4760225007780761e+01
difR_eg_o[203,2,1,1] 4.4497488475166620e+01
difR_eg_o[203,2,2,0] 4.4774676669690407e+01
difR_eg_o[203,2,2,1] 4.4511935331581746e+01
difR_eg_o[203,2,3,0] 1.6501134159100104e+01
difR_eg_o[203,2,3,1] 1.1531433073533375e+01
difR_eg_o[203,2,4,0] 4.5528480161964865e+01
difR_eg_o[203,2,4,1] 2.4099423984470775e+01
difR_eg_o[303,2,1,0] 4.4207780618170588e+01
difR_eg_o[303,2,1,1] 4.3367640276609464e+01
difR_eg_o[303,2,2,0] 4.4219999976944607e+01
difR_eg_o[303,2,2,1] 4.3377137116138620e+01
difR_eg_o[303,2,3,0] 4.2132473199461437e+01
difR_eg_o[303,2,3,1] 4.1493983466248046e+01
difR_eg_o[303,2,4,0] 4.2928592492264556e+01
difR_eg_o[303,2,4,1] 1.8784066485247038e+01
pR_eg_o[101,1,1] 0
pR_eg_o[101,1,2] 0
pR_eg_o[101,1,3] 0
pR_eg_o[101,1,4] 2.7032837730805528e+00
pR_eg_o[102,1,1] 0
pR_eg_o[102,1,2] 0
pR_eg_o[102,1,3] 0
pR_eg_o[102,1,4] 0
pR_eg_o[203,1,1] 0
pR_eg_o[203,1,2] 0
pR_eg_o[203,1,3] 0
pR_eg_o[203,1,4] 0
pR_eg_o[303,1,1] 0
pR_eg_o[303,1,2] 0
pR_eg_o[303,1,3] 0
pR_eg_o[303,1,4] 0
pR_eg_o[101,2,1] 0
pR_eg_o[101,2,2] 0
pR_eg_o[101,2,3] 0
pR_eg_o[101,2,4] 0
pR_eg_o[102,2,1] 0
pR_eg_o[102,2,2] 0
pR_eg_o[102,2,3] 0
pR_eg_o[102,2,4] 0
pR_eg_o[203,2,1] 0
pR_eg_o[203,2,2] 0
pR_eg_o[203,2,3] 2.0142705203372604e+01
pR_eg_o[203,2,4] 0
pR_eg_o[303,2,1] 0
pR_eg_o[303,2,2] 0
pR_eg_o[303,2,3] 0
pR_eg_o[303,2,4] 0
gamma_g_o[1,1] 0
gamma_g_o[1,2] 1
gamma_g_o[1,3] 1
gamma_g_o[1,4] 0
gamma_g_o[2,1] 1
gamma_g_o[2,2] 1
gamma_g_o[2,3] 0
gamma_g_o[2,4] 0
k_o[1] 2
k_o[2] 1
k_o[3] 0
k_o[4] 1
z_eg_e'g[101,102,1] 0
z_eg_e'g[101,203,1] 0
z_eg_e'g[101,303,1] 0
z_eg_e'g[102,101,1] 0
z_eg_e'g[102,203,1] 0
z_eg_e'g[102,303,1] 1
z_eg_e'g[203,101,1] 1
z_eg_e'g[203,102,1] 0
z_eg_e'g[203,303,1] 0
z_eg_e'g[303,101,1] 0
z_eg_e'g[303,102,1] 0
z_eg_e'g[303,203,1] 1
z_eg_e'g[101,102,2] 1
z_eg_e'g[101,203,2] 0
z_eg_e'g[101,303,2] 0
z_eg_e'g[102,101,2] 0
z_eg_e'g[102,203,2] 0
z_eg_e'g[102,303,2] 1
z_eg_e'g[203,101,2] 0
z_eg_e'g[203,102,2] 0
z_eg_e'g[203,303,2] 0
z_eg_e'g[303,101,2] 0
z_eg_e'g[303,102,2] 0
z_eg_e'g[303,203,2] 1
s_eg[101,1] 3
s_eg[102,1] 0
s_eg[203,1] 1.9999999999999971e+00
s_eg[303,1] 1
s_eg[101,2] 0
s_eg[102,2] 1
s_eg[203,2] 3
s_eg[303,2] 2
mu_eg[101,1] 1
mu_eg[102,1] 1
mu_eg[203,1] 1
mu_eg[303,1] 1
mu_eg[101,2] 1
mu_eg[102,2] 1
mu_eg[203,2] 1
mu_eg[303,2] 1
dLR_g[1] 4.5999999926726247e+01
dLR_g[2] 4.5810689454011580e+01
d_eg_e'g[101,102,1] 1.3460329695166116e+01
d_eg_e'g[101,203,1] 1.3872566020974125e+01
d_eg_e'g[101,303,1] 1.3872566020974125e+01
d_eg_e'g[102,101,1] 1.3460329695166116e+01
d_eg_e'g[102,203,1] 1.3872566020974126e+01
d_eg_e'g[102,303,1] 4.5992873509703727e-08
d_eg_e'g[203,101,1] 0
d_eg_e'g[203,102,1] 1.3872566020974126e+01
d_eg_e'g[203,303,1] 1.3460329695166116e+01
d_eg_e'g[303,101,1] 1.3872566020974125e+01
d_eg_e'g[303,102,1] 1.3872566020974125e+01
d_eg_e'g[303,203,1] 0
d_eg_e'g[101,102,2] 0
d_eg_e'g[101,203,2] 9.9631129922635289e+00
d_eg_e'g[101,303,2] 9.9631129922635289e+00
d_eg_e'g[102,101,2] 8.5512512478963032e+00
d_eg_e'g[102,203,2] 9.9631129922635289e+00
d_eg_e'g[102,303,2] 8.9718881708397036e-02
d_eg_e'g[203,101,2] 9.9631129922635289e+00
d_eg_e'g[203,102,2] 9.9631129922635289e+00
d_eg_e'g[203,303,2] 9.7817887099238217e+00
d_eg_e'g[303,101,2] 9.9631129922635289e+00
d_eg_e'g[303,102,2] 9.9631129922635289e+00
d_eg_e'g[303,203,2] 0
dif_eg_e'g[101,102,1,0] 0
dif_eg_e'g[101,102,1,1] 0
dif_eg_e'g[101,203,1,0] 6.1526027431823440e+00
dif_eg_e'g[101,203,1,1] 1.2433566161438598e+01
dif_eg_e'g[101,303,1,0] 1.1900831473745228e+00
dif_eg_e'g[101,303,1,1] 1.1347869111903591e+01
dif_eg_e'g[102,101,1,0] 6.4224072015338614e+00
dif_eg_e'g[102,101,1,1] 1.1829334775897449e+01
dif_eg_e'g[102,203,1,0] 4.9625195958077484e+00
dif_eg_e'g[102,203,1,1] 1.0856970495349731e+00
dif_eg_e'g[102,303,1,0] 0
dif_eg_e'g[102,303,1,1] 0
dif_eg_e'g[203,101,1,0] 0
dif_eg_e'g[203,101,1,1] 0
dif_eg_e'g[203,102,1,0] 7.6124903489083389e+00
dif_eg_e'g[203,102,1,1] 0.481465663993923
dif_eg_e'g[203,303,1,0] 6.4224072015337406e+00
dif_eg_e'g[203,303,1,1] 1.1829334775897514e+01
dif_eg_e'g[303,101,1,0] 1.4598876057261041e+00
dif_eg_e'g[303,101,1,1] 1.2915031825432518e+01
dif_eg_e'g[303,102,1,0] 6.1526027431822712e+00
dif_eg_e'g[303,102,1,1] 1.2433566161438634e+01
dif_eg_e'g[303,203,1,0] 0
dif_eg_e'g[303,203,1,1] 0
dif_eg_e'g[101,102,2,0] 0
dif_eg_e'g[101,102,2,1] 0
dif_eg_e'g[101,203,2,0] 8.0035243904277333e+00
dif_eg_e'g[101,203,2,1] 5.93356704086494
dif_eg_e'g[101,303,2,0] 1.7572146927883594e+00
dif_eg_e'g[101,303,2,1] 5.2921912423111150e+00
dif_eg_e'g[102,101,2,0] 7.1608514135157515e+00
dif_eg_e'g[102,101,2,1] 4.6739817006699482e+00
dif_eg_e'g[102,203,2,0] 9.7607390832161158e+00
dif_eg_e'g[102,203,2,1] 6.4137579855383819e-01
dif_eg_e'g[102,303,2,0] 0
dif_eg_e'g[102,303,2,1] 0
dif_eg_e'g[203,101,2,0] 0
dif_eg_e'g[203,101,2,1] 0
dif_eg_e'g[203,102,2,0] 5.4036367207273557e+00
dif_eg_e'g[203,102,2,1] 6.1820954164116948e-01
dif_eg_e'g[203,303,2,0] 7.1608514135157364e+00
dif_eg_e'g[203,303,2,1] 4.6739817006699624e+00
dif_eg_e'g[303,101,2,0] 2.5998876697004007e+00
dif_eg_e'g[303,101,2,1] 5.3153574992237962e+00
dif_eg_e'g[303,102,2,0] 8.0035243904277547e+00
dif_eg_e'g[303,102,2,1] 5.9335670408649106e+00
dif_eg_e'g[303,203,2,0] 0
dif_eg_e'g[303,203,2,1] 0
p_eg_e'g[101,102,1] 0
p_eg_e'g[101,203,1] 0
p_eg_e'g[101,303,1] 0
p_eg_e'g[102,101,1] 0
p_eg_e'g[102,203,1] 0
p_eg_e'g[102,303,1] 0
p_eg_e'g[203,101,1] 0
p_eg_e'g[203,102,1] 0
p_eg_e'g[203,303,1] 0
p_eg_e'g[303,101,1] 0
p_eg_e'g[303,102,1] 0
p_eg_e'g[303,203,1] 0
p_eg_e'g[101,102,2] 0
p_eg_e'g[101,203,2] 0
p_eg_e'g[101,303,2] 0
p_eg_e'g[102,101,2] 0
p_eg_e'g[102,203,2] 0
p_eg_e'g[102,303,2] 8.9718881708396481e-02
p_eg_e'g[203,101,2] 0
p_eg_e'g[203,102,2] 0
p_eg_e'g[203,303,2] 0
p_eg_e'g[303,101,2] 0
p_eg_e'g[303,102,2] 0
p_eg_e'g[303,203,2] 0
R_eg[101,1,0] 1.0000000000000006e+02
R_eg[101,1,1] 2.8279414734373091e+01
R_eg[102,1,0] 9.2387509651091648e+01
R_eg[102,1,1] 2.8760880398366986e+01
R_eg[203,1,0] 9.8540112394273933e+01
R_eg[203,1,1] 4.1194446559805556e+01
R_eg[303,1,0] 93.5775927984662
R_eg[303,1,1] 4.0108749510270577e+01
R_eg[101,2,0] 4.7550606394141937e+01
R_eg[101,2,1] 2.0481318919018516e+00
R_eg[102,2,0] 4.2146969673414581e+01
R_eg[102,2,1] 1.4299223502606822e+00
R_eg[203,2,0] 5.0150494063842309e+01
R_eg[203,2,1] 7.3634893911256469e+00
R_eg[303,2,0] 4.0389754980626208e+01
R_eg[303,2,1] 6.7221135925718141e+00
rho_eg[101,1] 0
rho_eg[102,1] 1.0000000000000129e+00
rho_eg[203,1] 4.4408920985006262e-16
rho_eg[303,1] 1
rho_eg[101,2] 0
rho_eg[102,2] 1.0000000000000004e+00
rho_eg[203,2] -1.5543122344752192e-15
rho_eg[303,2] 9.9999999999999822e-01
L_eg[101,1,0] 9.2387509651091648e+01
L_eg[101,1,1] 2.8760880398366986e+01
L_eg[102,1,0] 9.3577592798466185e+01
L_eg[102,1,1] 4.0108749510270577e+01
L_eg[203,1,0] 9.9999999999999986e+01
L_eg[203,1,1] 2.8279414734373063e+01
L_eg[303,1,0] 9.8540112394273947e+01
L_eg[303,1,1] 4.1194446559805613e+01
L_eg[101,2,0] 4.2146969673414574e+01
L_eg[101,2,1] 1.4299223502606990e+00
L_eg[102,2,0] 4.0389754980626194e+01
L_eg[102,2,1] 6.7221135925718016e+00
L_eg[203,2,0] 4.7550606394141937e+01
L_eg[203,2,1] 2.0481318919018516e+00
L_eg[303,2,0] 5.0150494063842331e+01
L_eg[303,2,1] 7.3634893911256469e+00
lambda_eg[101,1] 1.0000000000000071e+00
lambda_eg[102,1] 1.2878587085651816e-14
lambda_eg[203,1] 9.9999999999999867e-01
lambda_eg[303,1] 0
lambda_eg[101,2] 1
lambda_eg[102,2] -4.4408920985006262e-16
lambda_eg[203,2] 9.9999999999999845e-01
lambda_eg[303,2] -1.7763568394002505e-15
min_eg[101,1] 1
min_eg[102,1] 0
min_eg[203,1] 1
min_eg[303,1] 0
min_eg[101,2] 1
min_eg[102,2] 0
min_eg[203,2] 1
min_eg[303,2] 0
max_eg[101,1] 0
max_eg[102,1] 1
max_eg[203,1] 0
max_eg[303,1] 1
max_eg[101,2] 0
max_eg[102,2] 1
max_eg[203,2] 0
max_eg[303,2] 1
entry_eg[101,1] 1
entry_eg[102,1] 0
entry_eg[203,1] 1
entry_eg[303,1] 0
entry_eg[101,2] 1
entry_eg[102,2] 0
entry_eg[203,2] 1
entry_eg[303,2] 0
p_eg[101,1] 1
p_eg[102,1] 1
p_eg[203,1] 1
p_eg[303,1] 1
p_eg[101,2] 1
p_eg[102,2] 1
p_eg[203,2] 1
p_eg[303,2] 1
alpha_eg[101,1] 1
alpha_eg[102,1] 1
alpha_eg[203,1] 1
alpha_eg[303,1] 1
alpha_eg[101,2] 1
alpha_eg[102,2] 1
alpha_eg[203,2] 1
alpha_eg[303,2] 1
xL_o[1,0] 4.2596095861589248e+01
xL_o[1,1] 1.3260064021983727e+01
xL_o[2,0] 7.3309370977618542e+01
xL_o[2,1] 2.2819969279617265e+01
xL_o[3,0] 8.7322809370955142e+01
xL_o[3,1] 0
xL_o[4,0] 6.9493502192530627e+01
xL_o[4,1] 1.7664364877228554e+01
xR_o[1,0] 5.3441488046719478e+01
xR_o[1,1] 7.3634893911256469e+00
xR_o[2,0] 5.3461819324114153e+01
xR_o[2,1] 0
xR_o[3,0] 6.4051740553242070e+01
xR_o[3,1] 1.3579564965435234e+01
xR_o[4,0] 9.3079086556106915e+01
xR_o[4,1] 2.6147555876372927e+01
d_orig 4.4612292930500757e+01
dif_orig[0] 4.2596095861589248e+01
dif_orig[1] 1.3260064021983727e+01
d_dest 2.7047989327047890e+01
dif_dest[0] 6.9209134438930260e+00
dif_dest[1] 2.6147555974907178e+01
yLL_o[1] 1
yLL_o[2] 0
yLL_o[3] 0
dLL_o[1] 3.2166707399191282e+01
dLL_o[2] 100000
dLL_o[3] 100000
difLL_o[1,0] 3.0713275215791128e+01
difLL_o[1,1] 9.5599052575695556e+00
difLL_o[2,0] 1.4013438293171930e+01
difLL_o[2,1] 9.9999999018117727e+04
difLL_o[3,0] 4.8479246469901074e+04
difLL_o[3,1] 4.8479200843712038e+04
pLL_o[1] 3.2166707179278738e+01
pLL_o[2] 0
pLL_o[3] 0
yLR_o[1] 0
yLR_o[2] 1
yLR_o[3] 0
dLR_o[1] 100000
dLR_o[2] 1.3643982274878361e+01
dLR_o[3] 100000
difLR_o[1,0] 4.8483024464060851e+04
difLR_o[1,1] 48483.0973477764
difLR_o[2,0] 9.6658364237891163e+00
difLR_o[2,1] 9.5962780874070468e+00
difLR_o[3,0] 5.75627718497708
difLR_o[3,1] 9.9999999834326358e+04
pLR_o[1] 0
pLR_o[2] 1.3643982274878361e+01
pLR_o[3] 0
yRL_o[1] 0
yRL_o[2] 0
yRL_o[3] 0
dRL_o[1] 100000
dRL_o[2] 100000
dRL_o[3] 100000
difRL_o[1,0] 4.8479240478664964e+04
difRL_o[1,1] 4.8479240436168126e+04
difRL_o[2,0] 4.8479204925776146e+04
difRL_o[2,1] 4.8479239750573317e+04
difRL_o[3,0] 4.8479238447493684e+04
difRL_o[3,1] 4.8479218976651748e+04
pRL_o[1] 0
pRL_o[2] 0
pRL_o[3] 0
yRR_o[1] 0
yRR_o[2] 0
yRR_o[3] 1
dRR_o[1] 100000
dRR_o[2] 100000
dRR_o[3] 3.2356017691777858e+01
difRR_o[1,0] 4.8479233944682463e+04
difRR_o[1,1] 4.8479221053607675e+04
difRR_o[2,0] 4.8479165371321367e+04
difRR_o[2,1] 4.8479221328212850e+04
difRR_o[3,0] 2.9514638753849813e+01
difRR_o[3,1] 1.3166588159504734e+01
pRR_o[1] 0
pRR_o[2] 0
pRR_o[3] 3.2356017651847822e+01
droneg[1] 46
droneg[2] 4.5541819223383321e+01
